Minimize
  obj: x0 + x1 + x2 + x3 + x4 + x5 + x6 + x7 + x8

Subject To
  c0: x1 + x2 + x3 + x4 + x8 = 48
  c1: x0 + x3 + x5 + x6 = 51
  c2: x0 + x1 + x2 + x3 + x5 + x7 + x8 = 64
  c3: x1 + x2 + x3 + x4 + x7 = 52
  c4: x2 + x4 + x8 = 25
  c5: x0 + x1 + x3 + x6 = 40
  c6: x1 + x5 + x6 = 43

Bounds
  x0 >= 0
  x1 >= 0
  x2 >= 0
  x3 >= 0
  x4 >= 0
  x5 >= 0
  x6 >= 0
  x7 >= 0
  x8 >= 0

Generals
  x0 x1 x2 x3 x4 x5 x6 x7 x8

End
